Route #1: 29 46 20 10 45 17 56 28 32 16 35 49 24 37 4 25 7 22 12
Route #2: 5 30 55 41 36
Route #3: 15 40 44 51 23 3 53 33 43 31 8 48 38 21
Route #4: 6 50 11 9 39 19 57 52 18 42 14 47 54 34 27 26 13
Route #5: 1 2
Route #6: 
Route #7: 
cost 2027.0317139223057
